Instance name : R110
Authors : bauke
Date :    21-05-13
Reference : N/A
Solution
Route 1 : 2 41 22 74 73 40 53 26 54 24
Route 2 : 21 72 75 56 23 67 39 25 55 4
Route 3 : 27 69 30 51 9 71 35 34 78 33 1
Route 4 : 28 76 12 29 81 79 3 50 77 68 80
Route 5 : 31 11 63 90 10 20 66 65
Route 6 : 52 7 82 18 8 46 48 60 89
Route 7 : 83 45 17 84 5 6 94 96 97 13
Route 8 : 88 62 19 47 36 49 64 32 70
Route 9 : 92 98 44 16 86 38 14 37 100 91 93
Route 10 : 95 59 99 61 85 87 57 15 43 42 58

